SYSTEM =Si 
####Initialisation:
#GGA     =  LDA     #(PBEsol exchange-correlation)
ISTART = 0 
#(0: Start job: "begin from scratch". Initialize the orbitals according to the flag INIWAV. 1: Read existing wavefunction; if there Continuation job: "restart with constant energy cut-off")
ICHARG = 2 
#(2: Take superposition of atomic charge densities; 11:Non-self-consistent: GGA/LDA band structures To obtain the eigenvalues (for band structure plots) or the DOS for a given charge density read from CHGCAR)

PREC = Normal # (for VASP.5.X)
LREAL = Auto #(projection operators are evaluated in real-space or in reciprocal space)

LCHARG= 1
#INIWAV = 1        (Random initial wavefunction; otherwise)
# ICORELEVEL = 1    (Print core levels)
 ##NELECT   = 352  (No. of electrons: charged cells; be careful)
 ##NBANDS   = 35   (No. of bands)
# NWRITE = 2        (Medium-level output)   

#Parallelisation: 
# LPLANE   = .TRUE. (Real space distribution; supercells)
 ##NPAR   = 4      (Max is no. nodes; don't set for hybrids)
 ##KPAR   = 2      (Divides k-grid into separate groups)

#Electronic Relaxation:
##LREAL = .FALSE. (Accurate forces for phonon calculations)
ENCUT = 500 
# ALGO  = FAST      (SCF minimisation algorithm; 38/48 combo)
# ENMAX = 500.00 eV (Plane-wave cutoff) 
# NELM  = 50        (Max SCF steps)   
# NELMIN = 5        (Min SCF steps)
EDIFF = 1E-07
#  (SCF energy convergence; eV) 
# ADDGRID = .TRUE.  (Increase grid; helps GGA convergence) 
##LASPH = .TRUE.  (Non-spherical elements; d/f convergence)

#Ionic Relaxation:
EDIFFG = -1E-03
#  (Ionic convergence; eV/AA)
#NSW = 50
#  (Max ionic steps) 
# NBLOCK =      1     (Update XDATCAR every X steps) 
IBRION =      1   #  (Algorithm: 0-MD; 1-Quasi-New; 2-CG)
ISIF   =      3   #  (Stress/relaxation: 2-Ions, 3-Shape/Ions/V, 7-Vol)
# ISYM   =      2     (Symmetry: 0=none; 2=GGA; 3=hybrids) 
# ISMEAR =      -5    # (semiconductor)
ISMEAR =      0    # (metal)
SIGMA  =      0.1 # (Smearing value in eV; metals:0.2)

#Miscellaneous:
#LORBIT = 11 
##(10:LDOS;11:PDOS PAW radii for projected DOS)
##RWIGS   =  1.5 1.5 (Radii for each atomic species)  
##LOPTICS = .TRUE.   (Dielectric functions)
# NEDOS     =  1000    (DOSCAR points)
 ##LVTOT   = .TRUE.   (Electrostatic potential)
 ##LELF    = .TRUE.   (Localisation function)
 ##NGX     = 500      (FFT grid mesh density; nice plots)
 ##NGY     = 500      (FFT grid mesh density)
 ##NGZ     = 500      (FFT grid mesh density)
 
#Decomposed Charge Density:
 ##LPARD = .TRUE. (Generate PARCHG)
 ##EINT  = -10 0  (Energy range)
 ##NBMOD =  -3    (With reference to Ef)
 ##KPUSE =  1     (Over k-points)
 ##IBAND =  20    (Over bands)
 
#Magnetic Calculations:
ISPIN = 2 
#(1:Closed shell DFT;2:Spin polarised DFT)

MAGMOM = 4*0 4*0 2 2 -2 -2 2 2 -2 -2 28*0 8*0 
# (Initial magnetic momoment on each ion)
 ##NUPDOWN = -1      (Enforce spin multiplet)
 LSORBIT = .FALSE.  (Spin-orbit coupling)
 LNONCOLLINEAR=.FALSE.

#DFT+U Calculations:
 LDAU = .FALSE.
 #(Activate DFT+U)
 #LDAUTYPE = 2
# (Dudarev; only U-J matters)
 #LDAUL = -1 -1 -1 -1 
#(Orbitals for each species) 
#LDAUU = 0 0 0 0 
# (U for each species)
 #LDAUJ = 0 0 0 0 
# (J for each species) 
 LMAXMIX = 6
#     (Mixing cut-off; 4-d, 6-f)

#CSHIFT


#Wannier90
#LWANNIER90=.TRUE.
#LWRITE_UNK=.TRUE.
#LWRITE_MMN_AMN=.TRUE.

#Hybrid-DFT Calculations: 
 ##LHFCALC  = .TRUE. (Activate HF)
 ##PRECFOCK = Fast  (HF FFT grid)
 ##NKRED   = 2      (Reduce k-grid-even only)
 ##AL3GO     = DAMPED (Dampened MD SCF; IAL3GO=53)  All    (SCF Combo; 58)
 ##TIME     = 0.30   (Timestep for)  
 ##HFLMAX   = 4      (HF cut-off: 4d,6f) 
 ##HFSCREEN = 0.207 (Switch to screened exchange; e.g. HSE06)
 ##AEXX     = 0.25   (25% HF exchange; e.g. PBE0)
 ##LDIAG    = .True. (Diagnolise Eigenvalues)
 
#Molecular Dynamics:
 ##POTIM  =       1    (Timestep in fs)
 ##TEBEG  =     100    (Start temp K)
 ##TEEND  =     100    (End temp K)
 ##SMASS  =       0    (Canonical ensemble)
